
Gurobi 11.0.2 (win64) logging started Sat Nov  2 02:55:08 2024

Set parameter LogFile to value ".\Experiments\Verification_16\Logs\vit_6_4_6_12_i4_r2_c2.log"
Set parameter TimeLimit to value 43200
Gurobi Optimizer version 11.0.2 build v11.0.2rc0 (win64 - Windows 10.0 (19045.2))

CPU model: Intel(R) Core(TM) i7-10750H CPU @ 2.60GHz, instruction set [SSE2|AVX|AVX2]
Thread count: 6 physical cores, 12 logical processors, using up to 12 threads

Optimize a model with 5685 rows, 8541 columns and 20876 nonzeros
Model fingerprint: 0xa3ba83e8
Model has 2398 quadratic constraints
Model has 840 general constraints
Variable types: 7941 continuous, 600 integer (600 binary)
Coefficient statistics:
  Matrix range     [6e-05, 1e+02]
  QMatrix range    [1e+00, 1e+00]
  QLMatrix range   [1e+00, 1e+00]
  Objective range  [1e+00, 1e+00]
  Bounds range     [3e-04, 1e+01]
  RHS range        [3e-04, 1e+02]
  QRHS range       [1e-06, 1e-06]
Presolve removed 2782 rows and 2893 columns
Presolve time: 0.07s
Presolved: 14660 rows, 5649 columns, 42135 nonzeros
Presolved model has 2269 bilinear constraint(s)
Presolved model has 593 nonlinear constraint(s)

Solving non-convex MINLP

Variable types: 4947 continuous, 702 integer (702 binary)

Root relaxation: objective -5.461569e+01, 6221 iterations, 0.38 seconds (0.42 work units)

    Nodes    |    Current Node    |     Objective Bounds      |     Work
 Expl Unexpl |  Obj  Depth IntInf | Incumbent    BestBd   Gap | It/Node Time

     0     0  -54.61569    0 2476          -  -54.61569      -     -    1s
     0     0  -54.61569    0 2618          -  -54.61569      -     -    3s
     0     0  -54.61569    0 2495          -  -54.61569      -     -    3s
     0     0  -54.61569    0 2544          -  -54.61569      -     -    5s
     0     0  -54.61569    0 2550          -  -54.61569      -     -    5s
     0     0  -54.61569    0 2498          -  -54.61569      -     -    6s
     0     0  -54.61569    0 2207          -  -54.61569      -     -   10s
     0     0  -54.61569    0 2209          -  -54.61569      -     -   11s
     0     0  -54.61569    0 2219          -  -54.61569      -     -   11s
     0     0  -54.61569    0 2280          -  -54.61569      -     -   15s
     0     0  -54.61569    0 2274          -  -54.61569      -     -   23s
     0     2  -54.61569    0 2274          -  -54.61569      -     -   68s
     3     8  -54.61569    2 2244          -  -54.61569      -   781   73s
     7    13  -54.61569    3 2236          -  -54.61569      -  1231   75s
    37    58  -54.61569    7 2233          -  -54.61569      -  1065   83s
    58   131  -54.61569   11 2214          -  -54.61569      -   959   87s
   137   245  -54.61569   20 2206          -  -54.61569      -   632  103s
   267   695  -54.61569   32 2203          -  -54.61569      -   656  120s
   739   913 infeasible   78               -  -54.61569      -   516  144s
   976  1276  -54.61569   84 2143          -  -54.61569      -   521  162s
  1366  1750  -54.61569  120 2097          -  -54.61569      -   539  179s
  1851  2183  -54.61569  170 2056          -  -54.61569      -   552  199s
  2310  2554 infeasible  195               -  -54.61569      -   588  215s
  2711  3101  -54.61569   56 2055          -  -54.61569      -   604  243s
  3276  3653  -54.61569  139 2001          -  -54.61569      -   599  263s
  3864  4068  -54.61569  170 1996          -  -54.61569      -   600  301s
  4335  4573  -54.61569  241 1985          -  -54.61569      -   609  324s
  4943  4574  -54.61569  263    0          -  -54.61569      -   617  325s

Explored 4944 nodes (3132560 simplex iterations) in 336.71 seconds (430.50 work units)
Thread count was 12 (of 12 available processors)

Solution count 0

Solve interrupted
Best objective -, best bound -5.461568977463e+01, gap -
